GLPSOL: GLPK LP/MIP Solver, v4.65
Parameter(s) specified in the command line:
 -m assignment.mod -d assignment-fixing-B.dat --log assignment-fixing-B.log
Reading model section from assignment.mod...
36 lines were read
Reading data section from assignment-fixing-B.dat...
22 lines were read
Checking (line 3)...
Generating Fixing_Constraints...
Generating One_Task_Per_Worker...
Generating One_Worker_Per_Task...
Generating Total_Cost...
Model has been successfully generated
GLPK Integer Optimizer, v4.65
16 rows, 49 columns, 148 non-zeros
49 integer variables, all of which are binary
Preprocessing...
12 rows, 36 columns, 72 non-zeros
36 integer variables, all of which are binary
Scaling...
 A: min|aij| =  1.000e+00  max|aij| =  1.000e+00  ratio =  1.000e+00
Problem data seem to be well scaled
Constructing initial basis...
Size of triangular part is 11
Solving LP relaxation...
GLPK Simplex Optimizer, v4.65
12 rows, 36 columns, 72 non-zeros
      0: obj =   5.300000000e+01 inf =   4.000e+00 (1)
     10: obj =   6.600000000e+01 inf =   0.000e+00 (0)
*    33: obj =   4.300000000e+01 inf =   0.000e+00 (0)
OPTIMAL LP SOLUTION FOUND
Integer optimization begins...
Long-step dual simplex will be used
+    33: mip =     not found yet >=              -inf        (1; 0)
+    33: >>>>>   4.300000000e+01 >=   4.300000000e+01   0.0% (1; 0)
+    33: mip =   4.300000000e+01 >=     tree is empty   0.0% (0; 1)
INTEGER OPTIMAL SOLUTION FOUND
Time used:   0.0 secs
Memory used: 0.2 Mb (247159 bytes)
Optimal Cost: 43
W1->T2 (6)
W2->T7 (5)
W3->T5 (10)
W4->T3 (2)
W5->T1 (10)
W6->T6 (3)
W7->T4 (7)
Model has been successfully processed
